TCS_Benchmarks/redos_fix/snort3_output_distinct_774_773_41_0.txt
([^ 
&]*)([^ 
&]*)
([^ 
&]*)([lL][oO][gG][iI][nN])([^ 
&]*)